276 528
36 1 -4
122 1 -4
123 1 4
136 1 4
27 2 4
140 2 -4
217 2 4
239 2 -4
4 3 4
95 3 -4
246 3 4
247 3 -4
13 4 -4
96 4 -4
274 4 4
6 5 4
51 5 4
105 5 -4
166 5 -4
35 6 4
98 6 -4
100 6 -4
18 7 -4
95 7 4
219 7 4
243 7 -4
9 8 4
10 8 -4
41 8 4
108 8 -4
30 9 4
97 9 -4
98 9 -4
50 10 4
52 10 4
102 10 -4
12 11 4
134 11 -4
152 11 4
169 11 -4
41 12 -4
51 12 -4
208 12 4
27 13 -4
241 13 4
272 13 4
22 14 4
132 14 -4
147 14 4
251 14 -4
16 15 4
121 15 -4
151 15 -4
170 15 4
41 16 -4
44 16 4
101 16 -4
152 17 -4
170 17 4
190 17 4
211 17 -4
63 18 4
178 18 4
268 18 -4
140 19 -4
243 19 -4
244 19 4
269 19 4
163 20 4
203 20 -4
223 20 4
251 20 -4
32 21 -4
97 21 -4
149 21 4
162 21 4
97 22 -4
227 22 4
254 22 -4
24 23 4
25 23 -4
135 23 -4
189 23 4
99 24 -4
101 24 -4
231 24 4
108 25 -4
133 25 4
256 25 4
54 26 4
134 26 -4
189 26 4
235 26 -4
77 27 4
175 27 -4
29 28 -4
147 28 -4
183 28 4
249 28 4
224 29 4
99 30 4
205 30 -4
228 30 -4
46 31 4
121 31 -4
209 31 4
262 31 -4
33 32 4
34 32 -4
204 32 4
161 33 -4
250 34 4
101 35 4
185 35 -4
206 35 -4
47 36 4
192 36 -4
234 36 4
83 37 4
156 37 -4
216 37 -4
269 37 4
39 38 4
40 38 -4
131 38 -4
225 38 4
146 39 -4
162 40 4
42 41 4
166 42 4
167 42 -4
187 42 -4
44 43 4
114 43 -4
122 43 -4
261 43 4
89 44 -4
207 44 -4
75 45 4
103 45 4
122 45 -4
261 45 -4
103 46 -4
153 46 -4
236 46 4
103 47 -4
112 47 4
117 47 -4
79 48 4
139 48 -4
194 48 -4
241 48 4
78 49 4
146 49 -4
88 50 -4
251 50 4
253 50 -4
52 51 4
169 51 -4
150 52 -4
168 52 -4
72 53 4
104 53 4
123 53 -4
233 53 -4
104 54 -4
171 54 -4
212 54 4
76 55 4
126 55 -4
174 55 -4
219 55 4
105 56 4
132 56 -4
187 56 4
253 56 -4
106 57 4
115 57 -4
153 57 4
210 57 -4
62 58 -4
156 58 -4
196 58 4
270 58 4
67 59 4
113 59 -4
128 59 4
142 59 -4
84 60 -4
88 60 -4
204 60 4
249 60 4
65 61 -4
109 61 4
111 61 -4
171 61 4
63 62 4
110 62 -4
265 62 4
139 63 -4
140 63 -4
86 64 -4
91 64 -4
183 64 4
223 64 4
89 65 4
189 65 4
190 65 -4
70 66 4
127 66 -4
129 66 4
143 66 -4
129 67 -4
132 68 -4
168 68 -4
185 68 4
255 68 4
121 69 -4
152 69 4
207 69 4
258 69 -4
73 70 4
74 70 -4
118 70 -4
167 71 4
205 71 -4
228 71 4
256 71 -4
134 72 4
135 72 -4
234 72 -4
76 73 4
127 73 -4
270 73 -4
79 74 4
140 74 4
141 74 -4
213 75 4
262 75 -4
264 75 -4
240 76 -4
242 76 -4
83 77 4
127 77 -4
157 77 -4
131 78 4
145 78 -4
148 78 -4
218 79 -4
220 79 -4
168 80 4
187 80 -4
230 80 -4
259 80 4
153 81 4
259 81 4
260 81 -4
261 81 -4
94 82 4
173 82 4
236 82 -4
263 82 -4
195 83 -4
197 83 -4
162 84 4
171 85 4
230 85 4
231 85 -4
233 85 -4
250 86 4
88 87 4
183 87 4
185 87 -4
205 87 -4
250 88 4
208 89 4
210 89 -4
91 90 4
204 90 4
205 90 -4
226 90 -4
224 91 4
252 91 -4
93 92 4
222 92 -4
273 93 4
274 93 -4
276 93 -4
239 94 4
264 94 -4
267 94 -4
96 95 -4
199 95 -4
177 96 -4
196 96 4
163 97 4
131 98 -4
183 98 4
227 99 -4
257 99 -4
148 100 -4
166 100 -4
204 100 4
254 101 -4
164 102 -4
166 102 -4
225 102 4
116 103 -4
116 104 -4
124 104 -4
151 105 -4
169 105 -4
124 106 -4
137 106 -4
190 106 -4
119 107 -4
247 107 -4
151 108 -4
186 108 4
137 109 -4
154 109 -4
211 109 -4
116 110 4
126 110 -4
137 110 -4
154 111 -4
172 111 -4
235 111 -4
126 112 -4
139 112 -4
154 112 -4
143 113 -4
134 114 -4
229 114 4
257 114 -4
172 115 -4
191 115 -4
262 115 -4
125 116 -4
139 117 -4
156 117 -4
172 117 -4
119 118 4
141 118 -4
159 118 -4
120 119 -4
158 119 -4
159 120 -4
122 121 -4
191 123 -4
213 123 -4
138 124 -4
265 124 -4
156 125 -4
174 125 -4
191 125 -4
175 126 -4
128 127 -4
157 128 -4
181 128 -4
130 129 -4
180 129 -4
181 130 -4
149 131 -4
149 132 -4
135 133 -4
170 133 4
188 133 4
136 135 -4
232 136 4
234 136 4
155 137 -4
174 138 -4
194 138 -4
213 138 -4
142 141 -4
178 141 -4
179 142 -4
201 142 -4
144 143 -4
200 143 -4
201 144 -4
161 145 -4
148 146 -4
251 146 -4
165 147 4
250 147 4
165 148 -4
150 149 -4
165 150 -4
186 150 4
259 151 4
153 152 4
173 154 -4
194 155 -4
216 155 -4
264 155 4
158 157 -4
197 157 -4
198 158 -4
222 158 -4
160 159 -4
273 159 -4
222 160 -4
164 161 -4
225 161 -4
164 162 -4
184 163 4
224 163 4
184 164 -4
167 165 -4
184 167 -4
257 168 -4
230 169 4
171 170 4
193 172 -4
216 173 -4
238 173 -4
176 174 -4
177 175 -4
267 175 -4
177 176 -4
238 176 -4
269 176 -4
178 177 -4
179 178 -4
180 179 -4
220 179 -4
221 180 -4
246 180 -4
182 181 -4
245 181 -4
246 182 -4
185 184 -4
206 186 4
226 186 -4
188 187 -4
206 188 -4
208 188 -4
259 189 4
212 190 -4
215 191 -4
212 192 -4
215 192 -4
265 192 -4
214 193 4
238 193 -4
266 193 -4
195 194 -4
241 195 -4
266 195 -4
197 196 4
240 196 -4
198 197 -4
200 198 -4
242 198 -4
222 199 4
243 199 -4
275 199 -4
244 200 -4
275 200 -4
202 201 -4
274 201 -4
275 202 -4
224 203 -4
207 206 -4
228 207 -4
232 208 4
210 209 4
230 209 4
260 209 -4
211 210 -4
236 211 -4
214 212 -4
237 213 -4
236 214 -4
237 214 -4
217 215 -4
266 215 -4
218 216 -4
218 217 -4
237 217 -4
219 218 -4
220 219 4
221 220 -4
271 221 -4
273 221 -4
252 225 4
227 226 -4
252 226 -4
255 227 -4
229 228 -4
231 229 -4
255 229 -4
232 231 -4
233 232 4
235 233 -4
263 234 4
263 235 -4
239 237 -4
240 238 -4
240 239 -4
242 241 4
244 242 -4
245 243 4
245 244 -4
247 245 -4
248 246 -4
248 247 -4
253 252 -4
254 253 -4
256 254 -4
258 255 -4
258 256 -4
260 257 4
260 258 -4
262 261 -4
264 263 -4
267 265 -4
268 266 -4
268 267 -4
270 268 -4
271 269 4
271 270 -4
272 271 -4
273 272 -4
274 272 -4
276 275 -4
182
95 2
96 2
97 2
98 2
99 2
100 2
101 2
102 2
103 2
104 2
105 2
106 2
107 2
108 2
109 2
110 2
111 4
112 2
113 2
114 2
115 4
116 2
117 4
118 2
119 2
120 2
121 4
122 4
123 2
124 4
125 4
126 4
127 4
128 2
129 2
130 2
131 2
132 4
133 -2
134 2
135 4
136 -2
137 4
138 4
139 4
140 2
141 4
142 4
143 4
144 2
145 2
146 4
147 -2
148 4
149 2
150 2
151 2
152 -2
153 -2
154 4
155 2
156 4
157 4
158 4
159 4
160 2
161 4
162 -2
163 -4
164 4
165 2
166 2
167 2
168 2
169 2
170 -4
171 -2
172 4
173 2
174 4
175 4
176 4
177 4
178 2
179 4
180 4
181 4
182 2
183 -4
184 2
185 2
186 -2
187 2
188 2
189 -4
190 2
191 4
192 4
193 2
194 4
195 4
196 -2
197 2
198 4
199 2
200 4
201 4
202 2
203 2
204 -4
205 4
206 2
207 2
208 -2
209 -2
210 2
211 4
212 2
213 2
214 2
215 4
216 4
217 2
218 4
219 -2
220 2
221 4
222 2
223 -2
224 -2
225 -2
226 4
227 2
228 2
229 2
230 -2
231 2
232 -2
233 2
234 -2
235 4
236 2
237 4
238 4
239 2
240 4
241 -2
242 2
243 2
244 2
245 2
246 2
247 4
248 2
249 -2
250 -4
251 2
252 2
253 4
254 4
255 2
256 2
257 2
258 4
259 -4
260 2
261 2
262 4
263 2
264 2
265 2
266 4
267 4
268 4
269 -2
270 2
271 2
272 2
273 2
274 2
275 4
276 2
